# Solution for model problem
# Objective value = 7
CLIENT_PE6_0 1
CLIENT_PE2_3 1
src_2 1
ptr_3 1
cache_3 1
tooth_2 1
sink_1 1
CLIENT_PE0_0 0
CLIENT_PE2_0 0
CLIENT_PE3_0 0
CLIENT_PE4_0 0
CLIENT_PE7_0 0
CLIENT_PE13_0 0
CLIENT_PE14_0 0
CLIENT_PE0_3 0
CLIENT_PE3_3 0
CLIENT_PE4_3 0
CLIENT_PE6_3 0
CLIENT_PE7_3 0
CLIENT_PE13_3 0
CLIENT_PE14_3 0
src_0 0
src_1 0
src_3 0
src_4 0
ptr_0 0
ptr_1 0
ptr_2 0
ptr_4 0
cache_0 0
cache_1 0
cache_2 0
cache_4 0
tooth_0 0
tooth_1 0
tooth_3 0
tooth_4 0
sink_0 0
sink_2 0
sink_3 0
sink_4 0
